Assets/LKHProbs~/bomb.2.tsp
NAME : GeneratedProblem
COMMENT : SVGCrosshatch
TYPE : TSP
DIMENSION : 6
EDGE_WEIGHT_TYPE : EUC_2D
NODE_COORD_SECTION
1 12400 8000
2 12400 8100
3 12400 8200
4 12500 7800
5 12500 7900
6 12500 8000
EOF
