Assets/LKHProbs~/bomb.2.out.txt
NAME : bomb.2.tour
COMMENT : Length = 479929
COMMENT : Found by LKH [Keld Helsgaun] At some point in time
TYPE : TOUR
DIMENSION : TODO add valid length
TOUR_SECTION
1
2
3
6
5
4
-1
EOF
